
letting r = 10
letting n = 10

letting demand =
        [[0,1,1,1,0,0,0,0,0,1],
         [0,0,0,0,0,0,1,1,0,0],
         [0,0,0,1,0,1,0,0,1,1],
         [0,0,0,0,0,0,0,0,0,0],
         [0,0,0,0,0,1,1,0,0,0],
         [0,0,0,0,0,0,1,1,0,0],
         [0,0,0,0,0,0,0,0,0,0],
         [0,0,0,0,0,0,0,0,0,0],
         [0,0,0,0,0,0,0,0,0,0],
         [0,0,0,0,0,0,0,0,0,0]]


letting capacity_nodes be [2, 2, 1, 2, 1, 3, 3, 3, 1, 2]